networks/zoo_45_304/zoo_45_304-lower.sol
<?xml version = "1.0" encoding="UTF-8" standalone="yes"?>
<CPLEXSolution version="1.2">
 <header
   problemName="networks/zoo_45_304/zoo_45_304-lower.lp"
   solutionName="incumbent"
   solutionIndex="-1"
   objectiveValue="22"
   solutionTypeValue="3"
   solutionTypeString="primal"
   solutionStatusValue="101"
   solutionStatusString="integer optimal solution"
   solutionMethodString="mip"
   primalFeasible="1"
   dualFeasible="1"
   MIPNodes="0"
   MIPIterations="0"
   writeLevel="3"/>
 <quality
   epInt="1.0000000000000001e-05"
   epRHS="9.9999999999999995e-07"
   maxIntInfeas="0"
   maxPrimalInfeas="0"
   maxX="1"
   maxSlack="1"/>
 <variables>
  <variable name="Y(1,2)" index="1" value="1"/>
  <variable name="Y(2,6)" index="50" value="1"/>
  <variable name="Y(3,20)" index="109" value="1"/>
  <variable name="Y(4,1)" index="135" value="1"/>
  <variable name="Y(5,3)" index="182" value="1"/>
  <variable name="Y(6,4)" index="228" value="1"/>
  <variable name="Y(7,5)" index="274" value="1"/>
  <variable name="Y(9,7)" index="366" value="1"/>
  <variable name="Y(10,9)" index="413" value="1"/>
  <variable name="Y(11,10)" index="459" value="1"/>
  <variable name="Y(12,11)" index="505" value="1"/>
  <variable name="Y(13,12)" index="551" value="1"/>
  <variable name="Y(14,13)" index="597" value="1"/>
  <variable name="Y(15,14)" index="643" value="1"/>
  <variable name="Y(16,15)" index="689" value="1"/>
  <variable name="Y(17,16)" index="735" value="1"/>
  <variable name="Y(18,17)" index="781" value="1"/>
  <variable name="Y(19,18)" index="827" value="1"/>
  <variable name="Y(20,19)" index="873" value="1"/>
  <variable name="Y(22,21)" index="965" value="1"/>
  <variable name="Y(23,22)" index="1011" value="1"/>
  <variable name="Y(67,8)" index="2977" value="1"/>
  <variable name="X(1,6,1)" index="13680" value="1"/>
  <variable name="X(1,24,4)" index="13987" value="1"/>
  <variable name="X(2,4,6)" index="14293" value="1"/>
  <variable name="X(2,6,4)" index="14595" value="1"/>
  <variable name="X(2,7,9)" index="14904" value="1"/>
  <variable name="X(2,8,67)" index="15266" value="1"/>
  <variable name="X(2,12,13)" index="15516" value="1"/>
  <variable name="X(2,14,5)" index="15812" value="1"/>
  <variable name="X(2,17,18)" index="16129" value="1"/>
  <variable name="X(2,18,19)" index="16434" value="1"/>
  <variable name="X(2,20,14)" index="16733" value="1"/>
  <variable name="X(2,25,1)" index="17024" value="1"/>
  <variable name="X(3,14,24)" index="17351" value="1"/>
  <variable name="X(3,26,5)" index="17636" value="1"/>
  <variable name="X(4,2,41)" index="17976" value="1"/>
  <variable name="X(4,27,6)" index="18245" value="1"/>
  <variable name="X(5,6,58)" index="18601" value="1"/>
  <variable name="X(5,28,7)" index="18854" value="1"/>
  <variable name="X(6,1,4)" index="19155" value="1"/>
  <variable name="X(6,2,1)" index="19456" value="1"/>
  <variable name="X(6,5,7)" index="19766" value="1"/>
  <variable name="X(6,9,10)" index="20073" value="1"/>
  <variable name="X(6,11,12)" index="20379" value="1"/>
  <variable name="X(6,14,63)" index="20734" value="1"/>
  <variable name="X(6,16,17)" index="20992" value="1"/>
  <variable name="X(6,20,3)" index="21282" value="1"/>
  <variable name="X(6,29,2)" index="21585" value="1"/>
  <variable name="X(7,2,82)" index="21969" value="1"/>
  <variable name="X(7,30,9)" index="22200" value="1"/>
  <variable name="X(8,2,92)" index="22587" value="1"/>
  <variable name="X(8,31,67)" index="22866" value="1"/>
  <variable name="X(9,6,108)" index="23211" value="1"/>
  <variable name="X(9,32,10)" index="23417" value="1"/>
  <variable name="X(10,14,118)" index="23829" value="1"/>
  <variable name="X(10,33,11)" index="24026" value="1"/>
  <variable name="X(11,6,135)" index="24454" value="1"/>
  <variable name="X(11,34,12)" index="24635" value="1"/>
  <variable name="X(12,2,146)" index="25073" value="1"/>
  <variable name="X(12,35,13)" index="25244" value="1"/>
  <variable name="X(13,20,149)" index="25684" value="1"/>
  <variable name="X(13,36,14)" index="25853" value="1"/>
  <variable name="X(14,2,25)" index="26168" value="1"/>
  <variable name="X(14,3,5)" index="26452" value="1"/>
  <variable name="X(14,6,24)" index="26775" value="1"/>
  <variable name="X(14,10,11)" index="27066" value="1"/>
  <variable name="X(14,15,16)" index="27375" value="1"/>
  <variable name="X(14,20,34)" index="27697" value="1"/>
  <variable name="X(14,37,15)" index="27982" value="1"/>
  <variable name="X(15,14,185)" index="28456" value="1"/>
  <variable name="X(15,38,16)" index="28591" value="1"/>
  <variable name="X(16,6,203)" index="29082" value="1"/>
  <variable name="X(16,39,17)" index="29200" value="1"/>
  <variable name="X(17,2,220)" index="29707" value="1"/>
  <variable name="X(17,40,18)" index="29809" value="1"/>
  <variable name="X(18,2,235)" index="30330" value="1"/>
  <variable name="X(18,41,19)" index="30418" value="1"/>
  <variable name="X(19,20,238)" index="30941" value="1"/>
  <variable name="X(19,42,20)" index="31027" value="1"/>
  <variable name="X(20,2,150)" index="31461" value="1"/>
  <variable name="X(20,6,149)" index="31764" value="1"/>
  <variable name="X(20,13,14)" index="31933" value="1"/>
  <variable name="X(20,14,158)" index="32381" value="1"/>
  <variable name="X(20,19,20)" index="32547" value="1"/>
  <variable name="X(20,21,22)" index="32853" value="1"/>
  <variable name="X(20,22,23)" index="33158" value="1"/>
  <variable name="X(20,43,3)" index="33442" value="1"/>
  <variable name="X(21,20,262)" index="34005" value="1"/>
  <variable name="X(21,44,22)" index="34069" value="1"/>
  <variable name="X(22,20,279)" index="34630" value="1"/>
  <variable name="X(22,45,23)" index="34678" value="1"/>
  <variable name="X(23,14,295)" index="35254" value="1"/>
 </variables>
</CPLEXSolution>
